p wcnf 187 94 95 
1 84 5 0 
1 47 -38 0 
1 -124 65 0 
1 27 181 0 
1 63 83 0 
1 -7 139 0 
1 -131 13 0 
1 107 -177 0 
1 34 135 0 
1 -80 168 0 
1 -94 -140 0 
1 -114 -21 0 
1 -113 -98 0 
1 -142 118 0 
1 53 78 0 
1 -58 55 0 
1 81 80 0 
1 -86 -98 0 
1 104 74 0 
1 -49 60 0 
1 54 96 0 
1 171 -153 0 
1 131 -7 0 
1 -170 -116 0 
1 173 -5 0 
1 -92 -96 0 
1 -179 180 0 
1 -75 -14 0 
1 115 -22 0 
1 -90 49 0 
1 -171 174 0 
1 80 151 0 
1 75 -83 0 
1 -88 108 0 
1 105 -143 0 
1 -162 -113 0 
1 2 138 0 
1 126 -49 0 
1 -141 56 0 
1 50 112 0 
1 124 -12 0 
1 87 -141 0 
1 -160 -136 0 
1 122 90 0 
1 -118 136 0 
1 -55 53 0 
1 85 -24 0 
1 8 -158 0 
1 166 151 0 
1 16 -121 0 
1 114 178 0 
1 -114 -181 0 
1 -51 -109 0 
1 -169 -99 0 
1 23 -6 0 
1 38 -169 0 
1 -15 22 0 
1 -125 -69 0 
1 152 95 0 
1 24 -21 0 
1 -172 17 0 
1 -172 125 0 
1 -186 -182 0 
1 182 175 0 
1 53 29 0 
1 -166 -40 0 
1 -40 48 0 
1 -135 -113 0 
1 131 -168 0 
1 -76 -12 0 
1 -22 -79 0 
1 -84 121 0 
1 154 60 0 
1 19 23 0 
1 96 -183 0 
1 104 54 0 
1 -59 12 0 
1 183 -81 0 
1 -1 71 0 
1 168 -146 0 
1 147 51 0 
1 97 40 0 
1 45 -53 0 
1 -89 98 0 
1 166 12 0 
1 24 97 0 
1 44 -33 0 
1 -112 -15 0 
1 44 -60 0 
1 -95 45 0 
1 -16 -129 0 
1 31 146 0 
1 -88 172 0 
1 24 -11 0 
